  Problem      m    n     nvar    fmax    fmin    smax    smin
  p1          10   50      510     580     310     373     114
  p2          10   50      510     300     300     373     114
  p3          10   50      510     500     500     373     114
  p4          10   50      510     700     700     373     114
  p5          10   50      510     580     310     200     200
  p6          10   50      510     300     300     200     200
  p7          10   50      510     500     500     200     200
  p8          10   50      510     700     700     200     200
  p9          10   50      510     580     310     300     300
  p10         10   50      510     300     300     300     300
  p11         10   50      510     500     500     300     300
  p12         10   50      510     700     700     300     300
  p13         20   50     1020     580     302     487     302
  p14         20   50     1020     300     300     487     302
  p15         20   50     1020     500     500     487     302
  p16         20   50     1020     700     700     487     302
  p17         20   50     1020     580     302     400     400
  p18         20   50     1020     300     300     400     400
  p19         20   50     1020     500     500     400     400
  p20         20   50     1020     700     700     400     400
  p21         20   50     1020     580     302     500     500
  p22         20   50     1020     300     300     500     500
  p23         20   50     1020     500     500     500     500
  p24         20   50     1020     700     700     500     500
  p25         30  150     4530     595     205     595     201
  p26         30  150     4530     300     300     595     201
  p27         30  150     4530     500     500     595     201
  p28         30  150     4530     700     700     595     201
  p29         30  150     4530     595     205     300     300
  p30         30  150     4530     300     300     300     300
  p31         30  150     4530     500     500     300     300
  p32         30  150     4530     700     700     300     300
  p33         30  150     4530     595     205     400     400
  p34         30  150     4530     300     300     400     400
  p35         30  150     4530     500     500     400     400
  p36         30  150     4530     700     700     400     400
  p37         30  150     4530     595     205     600     600
  p38         30  150     4530     300     300     600     600
  p39         30  150     4530     500     500     600     600
  p40         30  150     4530     700     700     600     600
  p41         10   90      910     487     307     474     114
  p42         20   80     1620     487     302     474     103
  p43         30   70     2130     487     302     474     103
  p44         10   90      910     487     307     474     114
  p45         20   80     1620     487     302     474     103
  p46         30   70     2130     487     302     474     103
  p47         10   90      910     487     307     474     114
  p48         20   80     1620     487     302     474     103
  p49         30   70     2130     487     302     474     103
  p50         10  100     1010     487     307     474     114
  p51         20  100     2020     487     302     474     103
  p52         10  100     1010     487     307     474     114
  p53         20  100     2020     487     302     474     103
  p54         10  100     1010     487     307     474     114
  p55         20  100     2020     487     302     474     103
  p56         30  200     6030     500     500     400     400
  p57         30  200     6030     800     800     400     400
  p58         30  200     6030    1500    1500     400     400
  p59         30  200     6030    1476     506     400     400
  p60         30  200     6030     500     500     600     600
  p61         30  200     6030     800     800     600     600
  p62         30  200     6030    1500    1500     600     600
  p63         30  200     6030    1476     506     600     600
  p64         30  200     6030     500     500     800     800
  p65         30  200     6030     800     800     800     800
  p66         30  200     6030    1500    1500     800     800
  p67         30  200     6030    1476     506     600     600
  p68         30  200     6030     500     500     791     403
  p69         30  200     6030     800     800     791     403
  p70         30  200     6030    1500    1500     791     403
  p71         30  200     6030    1476     506     791     403
